NAME:  teste
TYPE: ATSP
COMMENT: 0 city problem (Repetto)
DIMENSION:  5
EDGE_WEIGHT_TYPE: EXPLICIT
EDGE_WEIGHT_FORMAT: FULL_MATRIX 
EDGE_WEIGHT_SECTION
 9999    1    2   7   5    
    1 9999    3   4   3
    2    3 9999   5   2
   7   4   5 9999    3
   5   3   2    3 9999
EOF
